Number of items: 10
Maximum Weight: 20
Enter 10 Values: 1
2
3
4
5
6
7
8
9
10
Enter 10 Weights: 11
22
33
44
55
66
77
88
99
1010
0       0       0       0       0       0       0       0       0       0       0       0       0       0       0       0       0       0       0       0     0
0       0       0       0       0       0       0       0       0       0       0       1       1       1       1       1       1       1       1       1     1
0       0       0       0       0       0       0       0       0       0       0       1       1       1       1       1       1       1       1       1     1
0       0       0       0       0       0       0       0       0       0       0       1       1       1       1       1       1       1       1       1     1
0       0       0       0       0       0       0       0       0       0       0       1       1       1       1       1       1       1       1       1     1
0       0       0       0       0       0       0       0       0       0       0       1       1       1       1       1       1       1       1       1     1
0       0       0       0       0       0       0       0       0       0       0       1       1       1       1       1       1       1       1       1     1
0       0       0       0       0       0       0       0       0       0       0       1       1       1       1       1       1       1       1       1     1
0       0       0       0       0       0       0       0       0       0       0       1       1       1       1       1       1       1       1       1     1
0       0       0       0       0       0       0       0       0       0       0       1       1       1       1       1       1       1       1       1     1
0       0       0       0       0       0       0       0       0       0       0       1       1       1       1       1       1       1       1       1     1
Max Value that could be taken: 1
